output/evolution_ilp.lp
Maximize
  0.00280233183070657 Z_425_0_0 + 0.00559657447550375 Z_425_0_1
   + 0.8228631697099739 Z_425_0_2 + 0.0259257597103555 Z_425_0_3
   + 0.0428121642734604 Z_425_0_4 + 0.00218978318263446 Z_553_0_0
   + 0.00294843256889383 Z_553_0_1 + 0.7322248037496273 Z_553_0_2
   + 0.00487199 Z_553_0_3 + 0.1577649905850343 Z_553_0_4
   + 0.0439198240423741 Z_553_3_0 + 0.00667633361291044 Z_553_3_1
   + 0.0089321738216232 Z_553_3_2 + 0.1073611193025295 Z_553_3_3
   + 0.7331105492205626 Z_553_3_4 + 0.0374562238585108 Z_422_1_0
   + 0.0184726230614496 Z_422_1_1 + 0.0176924801472683 Z_422_1_2
   + 0.0862090437795479 Z_422_1_3 + 0.7401696291532234 Z_422_1_4
   + 0.00231560468878777 Z_422_4_0 + 0.00319844330588023 Z_422_4_1
   + 0.4693837152458228 Z_422_4_2 + 0.00391250937587792 Z_422_4_3
   + 0.4211897273836313 Z_422_4_4 + 0.0144337063062166 Z_422_2_0
   + 0.00899164149349012 Z_422_2_1 + 0.0197230447348099 Z_422_2_2
   + 0.0389188588295169 Z_422_2_3 + 0.8179327486359664 Z_422_2_4
   + 0.0010586986984329 Z_422_0_0 + 2.2171655575996407e-04 Z_422_0_1
   + 0.0540074734664165 Z_422_0_2 + 0.1246326292291576 Z_422_0_3
   + 0.720079482050233 Z_422_0_4 + 0.00913128924318908 Z_422_3_0
   + 0.0118334908896316 Z_422_3_1 + 0.00607430388098525 Z_422_3_2
   + 0.0819011898542002 Z_422_3_3 + 0.7910597261319939 Z_422_3_4
   + 0.0815890019399783 Z_422_7_0 + 0.0100252268839639 Z_422_7_1
   + 0.0101744427802546 Z_422_7_2 + 0.0437429650109389 Z_422_7_3
   + 0.7544683633848643 Z_422_7_4
Subject To
 constraint1_4250: Z_425_0_0 + Z_425_0_1 + Z_425_0_2 + Z_425_0_3
   + Z_425_0_4 <= 1
 constraint1_5530: Z_553_0_0 + Z_553_0_1 + Z_553_0_2 + Z_553_0_3
   + Z_553_0_4 <= 1
 constraint1_5533: Z_553_3_0 + Z_553_3_1 + Z_553_3_2 + Z_553_3_3
   + Z_553_3_4 <= 1
 constraint1_4221: Z_422_1_0 + Z_422_1_1 + Z_422_1_2 + Z_422_1_3
   + Z_422_1_4 <= 1
 constraint1_4224: Z_422_4_0 + Z_422_4_1 + Z_422_4_2 + Z_422_4_3
   + Z_422_4_4 <= 1
 constraint1_4222: Z_422_2_0 + Z_422_2_1 + Z_422_2_2 + Z_422_2_3
   + Z_422_2_4 <= 1
 constraint1_4220: Z_422_0_0 + Z_422_0_1 + Z_422_0_2 + Z_422_0_3
   + Z_422_0_4 <= 1
 constraint1_4223: Z_422_3_0 + Z_422_3_1 + Z_422_3_2 + Z_422_3_3
   + Z_422_3_4 <= 1
 constraint1_4227: Z_422_7_0 + Z_422_7_1 + Z_422_7_2 + Z_422_7_3
   + Z_422_7_4 <= 1
 constraint2_4250: Z_425_0_0 <= 1
 constraint2_4251: Z_425_0_1 <= 1
 constraint2_4252: Z_425_0_2 <= 1
 constraint2_4253: Z_425_0_3 <= 1
 constraint2_5530: Z_553_0_0 + Z_553_3_0 <= 1
 constraint2_5531: Z_553_0_1 + Z_553_3_1 <= 1
 constraint2_5532: Z_553_0_2 + Z_553_3_2 <= 1
 constraint2_5533: Z_553_0_3 + Z_553_3_3 <= 1
 constraint2_4220: Z_422_1_0 + Z_422_4_0 + Z_422_2_0 + Z_422_0_0
   + Z_422_3_0 + Z_422_7_0 <= 1
 constraint2_4221: Z_422_1_1 + Z_422_4_1 + Z_422_2_1 + Z_422_0_1
   + Z_422_3_1 + Z_422_7_1 <= 1
 constraint2_4222: Z_422_1_2 + Z_422_4_2 + Z_422_2_2 + Z_422_0_2
   + Z_422_3_2 + Z_422_7_2 <= 1
 constraint2_4223: Z_422_1_3 + Z_422_4_3 + Z_422_2_3 + Z_422_0_3
   + Z_422_3_3 + Z_422_7_3 <= 1
Bounds
Binaries
 Z_425_0_0 Z_425_0_1 Z_425_0_2 Z_425_0_3 Z_425_0_4 Z_553_0_0 Z_553_0_1
 Z_553_0_2 Z_553_0_3 Z_553_0_4 Z_553_3_0 Z_553_3_1 Z_553_3_2 Z_553_3_3
 Z_553_3_4 Z_422_1_0 Z_422_1_1 Z_422_1_2 Z_422_1_3 Z_422_1_4 Z_422_4_0
 Z_422_4_1 Z_422_4_2 Z_422_4_3 Z_422_4_4 Z_422_2_0 Z_422_2_1 Z_422_2_2
 Z_422_2_3 Z_422_2_4 Z_422_0_0 Z_422_0_1 Z_422_0_2 Z_422_0_3 Z_422_0_4
 Z_422_3_0 Z_422_3_1 Z_422_3_2 Z_422_3_3 Z_422_3_4 Z_422_7_0 Z_422_7_1
 Z_422_7_2 Z_422_7_3 Z_422_7_4
End
