output/evolution_ilp.mps
NAME evolution_srl_ilp
* Max problem is converted into Min one
ROWS
 N  OBJ
 L  constraint1_4250
 L  constraint1_5530
 L  constraint1_5533
 L  constraint1_4221
 L  constraint1_4224
 L  constraint1_4222
 L  constraint1_4220
 L  constraint1_4223
 L  constraint1_4227
 L  constraint2_4250
 L  constraint2_4251
 L  constraint2_4252
 L  constraint2_4253
 L  constraint2_5530
 L  constraint2_5531
 L  constraint2_5532
 L  constraint2_5533
 L  constraint2_4220
 L  constraint2_4221
 L  constraint2_4222
 L  constraint2_4223
COLUMNS
    MARKER    'MARKER'                 'INTORG'
    Z_425_0_0  OBJ       -2.8023318307065738e-03
    Z_425_0_0  constraint1_4250  1
    Z_425_0_0  constraint2_4250  1
    Z_425_0_1  OBJ       -5.5965744755037466e-03
    Z_425_0_1  constraint1_4250  1
    Z_425_0_1  constraint2_4251  1
    Z_425_0_2  OBJ       -8.2286316970997386e-01
    Z_425_0_2  constraint1_4250  1
    Z_425_0_2  constraint2_4252  1
    Z_425_0_3  OBJ       -2.5925759710355500e-02
    Z_425_0_3  constraint1_4250  1
    Z_425_0_3  constraint2_4253  1
    Z_425_0_4  OBJ       -4.2812164273460400e-02
    Z_425_0_4  constraint1_4250  1
    Z_553_0_0  OBJ       -2.1897831826344569e-03
    Z_553_0_0  constraint1_5530  1
    Z_553_0_0  constraint2_5530  1
    Z_553_0_1  OBJ       -2.9484325688938252e-03
    Z_553_0_1  constraint1_5530  1
    Z_553_0_1  constraint2_5531  1
    Z_553_0_2  OBJ       -7.3222480374962728e-01
    Z_553_0_2  constraint1_5530  1
    Z_553_0_2  constraint2_5532  1
    Z_553_0_3  OBJ       -4.8719899138100209e-03
    Z_553_0_3  constraint1_5530  1
    Z_553_0_3  constraint2_5533  1
    Z_553_0_4  OBJ       -1.5776499058503435e-01
    Z_553_0_4  constraint1_5530  1
    Z_553_3_0  OBJ       -4.3919824042374114e-02
    Z_553_3_0  constraint1_5533  1
    Z_553_3_0  constraint2_5530  1
    Z_553_3_1  OBJ       -6.6763336129104433e-03
    Z_553_3_1  constraint1_5533  1
    Z_553_3_1  constraint2_5531  1
    Z_553_3_2  OBJ       -8.9321738216232016e-03
    Z_553_3_2  constraint1_5533  1
    Z_553_3_2  constraint2_5532  1
    Z_553_3_3  OBJ       -1.0736111930252953e-01
    Z_553_3_3  constraint1_5533  1
    Z_553_3_3  constraint2_5533  1
    Z_553_3_4  OBJ       -7.3311054922056262e-01
    Z_553_3_4  constraint1_5533  1
    Z_422_1_0  OBJ       -3.7456223858510759e-02
    Z_422_1_0  constraint1_4221  1
    Z_422_1_0  constraint2_4220  1
    Z_422_1_1  OBJ       -1.8472623061449638e-02
    Z_422_1_1  constraint1_4221  1
    Z_422_1_1  constraint2_4221  1
    Z_422_1_2  OBJ       -1.7692480147268253e-02
    Z_422_1_2  constraint1_4221  1
    Z_422_1_2  constraint2_4222  1
    Z_422_1_3  OBJ       -8.6209043779547898e-02
    Z_422_1_3  constraint1_4221  1
    Z_422_1_3  constraint2_4223  1
    Z_422_1_4  OBJ       -7.4016962915322337e-01
    Z_422_1_4  constraint1_4221  1
    Z_422_4_0  OBJ       -2.3156046887877675e-03
    Z_422_4_0  constraint1_4224  1
    Z_422_4_0  constraint2_4220  1
    Z_422_4_1  OBJ       -3.1984433058802326e-03
    Z_422_4_1  constraint1_4224  1
    Z_422_4_1  constraint2_4221  1
    Z_422_4_2  OBJ       -4.6938371524582279e-01
    Z_422_4_2  constraint1_4224  1
    Z_422_4_2  constraint2_4222  1
    Z_422_4_3  OBJ       -3.9125093758779180e-03
    Z_422_4_3  constraint1_4224  1
    Z_422_4_3  constraint2_4223  1
    Z_422_4_4  OBJ       -4.2118972738363131e-01
    Z_422_4_4  constraint1_4224  1
    Z_422_2_0  OBJ       -1.4433706306216649e-02
    Z_422_2_0  constraint1_4222  1
    Z_422_2_0  constraint2_4220  1
    Z_422_2_1  OBJ       -8.9916414934901236e-03
    Z_422_2_1  constraint1_4222  1
    Z_422_2_1  constraint2_4221  1
    Z_422_2_2  OBJ       -1.9723044734809899e-02
    Z_422_2_2  constraint1_4222  1
    Z_422_2_2  constraint2_4222  1
    Z_422_2_3  OBJ       -3.8918858829516907e-02
    Z_422_2_3  constraint1_4222  1
    Z_422_2_3  constraint2_4223  1
    Z_422_2_4  OBJ       -8.1793274863596643e-01
    Z_422_2_4  constraint1_4222  1
    Z_422_0_0  OBJ       -1.0586986984328992e-03
    Z_422_0_0  constraint1_4220  1
    Z_422_0_0  constraint2_4220  1
    Z_422_0_1  OBJ       -2.2171655575996407e-04
    Z_422_0_1  constraint1_4220  1
    Z_422_0_1  constraint2_4221  1
    Z_422_0_2  OBJ       -5.4007473466416510e-02
    Z_422_0_2  constraint1_4220  1
    Z_422_0_2  constraint2_4222  1
    Z_422_0_3  OBJ       -1.2463262922915760e-01
    Z_422_0_3  constraint1_4220  1
    Z_422_0_3  constraint2_4223  1
    Z_422_0_4  OBJ       -7.2007948205023298e-01
    Z_422_0_4  constraint1_4220  1
    Z_422_3_0  OBJ       -9.1312892431890825e-03
    Z_422_3_0  constraint1_4223  1
    Z_422_3_0  constraint2_4220  1
    Z_422_3_1  OBJ       -1.1833490889631603e-02
    Z_422_3_1  constraint1_4223  1
    Z_422_3_1  constraint2_4221  1
    Z_422_3_2  OBJ       -6.0743038809852523e-03
    Z_422_3_2  constraint1_4223  1
    Z_422_3_2  constraint2_4222  1
    Z_422_3_3  OBJ       -8.1901189854200182e-02
    Z_422_3_3  constraint1_4223  1
    Z_422_3_3  constraint2_4223  1
    Z_422_3_4  OBJ       -7.9105972613199393e-01
    Z_422_3_4  constraint1_4223  1
    Z_422_7_0  OBJ       -8.1589001939978312e-02
    Z_422_7_0  constraint1_4227  1
    Z_422_7_0  constraint2_4220  1
    Z_422_7_1  OBJ       -1.0025226883963883e-02
    Z_422_7_1  constraint1_4227  1
    Z_422_7_1  constraint2_4221  1
    Z_422_7_2  OBJ       -1.0174442780254558e-02
    Z_422_7_2  constraint1_4227  1
    Z_422_7_2  constraint2_4222  1
    Z_422_7_3  OBJ       -4.3742965010938904e-02
    Z_422_7_3  constraint1_4227  1
    Z_422_7_3  constraint2_4223  1
    Z_422_7_4  OBJ       -7.5446836338486434e-01
    Z_422_7_4  constraint1_4227  1
    MARKER    'MARKER'                 'INTEND'
RHS
    RHS1      constraint1_4250  1
    RHS1      constraint1_5530  1
    RHS1      constraint1_5533  1
    RHS1      constraint1_4221  1
    RHS1      constraint1_4224  1
    RHS1      constraint1_4222  1
    RHS1      constraint1_4220  1
    RHS1      constraint1_4223  1
    RHS1      constraint1_4227  1
    RHS1      constraint2_4250  1
    RHS1      constraint2_4251  1
    RHS1      constraint2_4252  1
    RHS1      constraint2_4253  1
    RHS1      constraint2_5530  1
    RHS1      constraint2_5531  1
    RHS1      constraint2_5532  1
    RHS1      constraint2_5533  1
    RHS1      constraint2_4220  1
    RHS1      constraint2_4221  1
    RHS1      constraint2_4222  1
    RHS1      constraint2_4223  1
BOUNDS
 UP BND1      Z_425_0_0  1
 UP BND1      Z_425_0_1  1
 UP BND1      Z_425_0_2  1
 UP BND1      Z_425_0_3  1
 UP BND1      Z_425_0_4  1
 UP BND1      Z_553_0_0  1
 UP BND1      Z_553_0_1  1
 UP BND1      Z_553_0_2  1
 UP BND1      Z_553_0_3  1
 UP BND1      Z_553_0_4  1
 UP BND1      Z_553_3_0  1
 UP BND1      Z_553_3_1  1
 UP BND1      Z_553_3_2  1
 UP BND1      Z_553_3_3  1
 UP BND1      Z_553_3_4  1
 UP BND1      Z_422_1_0  1
 UP BND1      Z_422_1_1  1
 UP BND1      Z_422_1_2  1
 UP BND1      Z_422_1_3  1
 UP BND1      Z_422_1_4  1
 UP BND1      Z_422_4_0  1
 UP BND1      Z_422_4_1  1
 UP BND1      Z_422_4_2  1
 UP BND1      Z_422_4_3  1
 UP BND1      Z_422_4_4  1
 UP BND1      Z_422_2_0  1
 UP BND1      Z_422_2_1  1
 UP BND1      Z_422_2_2  1
 UP BND1      Z_422_2_3  1
 UP BND1      Z_422_2_4  1
 UP BND1      Z_422_0_0  1
 UP BND1      Z_422_0_1  1
 UP BND1      Z_422_0_2  1
 UP BND1      Z_422_0_3  1
 UP BND1      Z_422_0_4  1
 UP BND1      Z_422_3_0  1
 UP BND1      Z_422_3_1  1
 UP BND1      Z_422_3_2  1
 UP BND1      Z_422_3_3  1
 UP BND1      Z_422_3_4  1
 UP BND1      Z_422_7_0  1
 UP BND1      Z_422_7_1  1
 UP BND1      Z_422_7_2  1
 UP BND1      Z_422_7_3  1
 UP BND1      Z_422_7_4  1
ENDATA
