output/evolution_ilp.sol
# Solution for model evolution_srl_ilp
# Objective value = 6.5812921872822674e+00
Z_425_0_0 0
Z_425_0_1 0
Z_425_0_2 1
Z_425_0_3 0
Z_425_0_4 0
Z_553_0_0 0
Z_553_0_1 0
Z_553_0_2 1
Z_553_0_3 0
Z_553_0_4 0
Z_553_3_0 0
Z_553_3_1 0
Z_553_3_2 0
Z_553_3_3 0
Z_553_3_4 1
Z_422_1_0 0
Z_422_1_1 0
Z_422_1_2 0
Z_422_1_3 0
Z_422_1_4 1
Z_422_4_0 0
Z_422_4_1 0
Z_422_4_2 1
Z_422_4_3 0
Z_422_4_4 0
Z_422_2_0 0
Z_422_2_1 0
Z_422_2_2 0
Z_422_2_3 0
Z_422_2_4 1
Z_422_0_0 0
Z_422_0_1 0
Z_422_0_2 0
Z_422_0_3 0
Z_422_0_4 1
Z_422_3_0 0
Z_422_3_1 0
Z_422_3_2 0
Z_422_3_3 0
Z_422_3_4 1
Z_422_7_0 0
Z_422_7_1 0
Z_422_7_2 0
Z_422_7_3 0
Z_422_7_4 1
